32      4       
10      10      10      10      
0       0       0       0       0       2       2       4       
6       1       0       1       1       2       3       8       
8       0       1       5       4       1       5       
8       3       0       8       4       1       5       
8       3       0       4       5       1       6       
2       6       5       5       0       1       7       
5       2       0       6       1       1       9       
3       4       7       5       0       1       9       
8       3       5       0       3       2       10      24      
1       3       0       7       3       2       11      13      
7       5       0       3       3       1       12      
1       2       0       6       5       3       14      15      17      
9       2       1       0       2       2       14      17      
8       6       4       2       0       2       16      22      
8       0       2       6       4       2       16      22      
4       4       4       0       6       1       18      
5       6       0       1       2       1       18      
7       2       0       6       6       1       19      
9       5       3       2       0       1       20      
3       0       4       4       6       1       21      
1       0       4       4       6       1       23      
10      2       0       2       4       1       23      
6       8       8       5       0       1       25      
9       4       0       4       6       1       25      
3       5       5       0       5       1       26      
9       0       6       4       3       2       27      28      
9       4       3       0       3       2       29      30      
1       10      4       2       0       2       29      30      
10      0       1       2       2       1       31      
5       3       0       2       2       1       31      
7       3       5       0       10      1       32      
0       0       0       0       0       0       
